Cost: 403
0-4-27-13-19-8-46-34-0
0-35-14-11-38-10-12-26-0
0-33-16-49-23-41-42-22-28-2-0
0-29-15-37-5-47-21-30-6-0
0-17-3-44-32-9-40-0
Cost: 403
0-40-9-32-44-3-17-0
0-6-30-21-47-5-37-15-29-0
0-4-27-13-19-8-46-34-0
0-35-14-11-38-10-12-26-0
0-33-16-49-23-41-42-22-28-2-0
Cost: 403
0-4-27-13-19-8-46-34-0
0-35-14-11-38-10-12-26-0
0-33-16-49-23-41-42-22-28-2-0
0-29-15-37-5-47-21-30-6-0
0-17-3-44-32-9-40-0
Cost: 403
0-4-27-13-19-8-46-34-0
0-35-14-11-38-10-12-26-0
0-33-16-49-23-41-42-22-28-2-0
0-29-15-37-5-47-21-30-6-0
0-17-3-44-32-9-40-0
Cost: 403
0-4-27-13-19-8-46-34-0
0-35-14-11-38-10-12-26-0
0-33-16-49-23-41-42-22-28-2-0
0-29-15-37-5-47-21-30-6-0
0-17-3-44-32-9-40-0
Cost: 403
0-4-27-13-19-8-46-34-0
0-35-14-11-38-10-12-26-0
0-33-16-49-23-41-42-22-28-2-0
0-29-15-37-5-47-21-30-6-0
0-17-3-44-32-9-40-0
Cost: 403
0-4-27-13-19-8-46-34-0
0-35-14-11-38-10-12-26-0
0-33-16-49-23-41-42-22-28-2-0
0-29-15-37-5-47-21-30-6-0
0-17-3-44-32-9-40-0
Cost: 403
0-4-27-13-19-8-46-34-0
0-35-14-11-38-10-12-26-0
0-33-16-49-23-41-42-22-28-2-0
0-29-15-37-5-47-21-30-6-0
0-17-3-44-32-9-40-0
Cost: 403
0-4-27-13-19-8-46-34-0
0-35-14-11-38-10-12-26-0
0-33-16-49-23-41-42-22-28-2-0
0-29-15-37-5-47-21-30-6-0
0-17-3-44-32-9-40-0
Cost: 403
0-4-27-13-19-8-46-34-0
0-35-14-11-38-10-12-26-0
0-33-16-49-23-41-42-22-28-2-0
0-29-15-37-5-47-21-30-6-0
0-17-3-44-32-9-40-0
Cost: 403
0-4-27-13-19-8-46-34-0
0-35-14-11-38-10-12-26-0
0-33-16-49-23-41-42-22-28-2-0
0-29-15-37-5-47-21-30-6-0
0-17-3-44-32-9-40-0
Cost: 403
0-4-27-13-19-8-46-34-0
0-35-14-11-38-10-12-26-0
0-33-16-49-23-41-42-22-28-2-0
0-29-15-37-5-47-21-30-6-0
0-17-3-44-32-9-40-0
Cost: 403
0-4-27-13-19-8-46-34-0
0-35-14-11-38-10-12-26-0
0-33-16-49-23-41-42-22-28-2-0
0-29-15-37-5-47-21-30-6-0
0-17-3-44-32-9-40-0
Cost: 403
0-4-27-13-19-8-46-34-0
0-35-14-11-38-10-12-26-0
0-33-16-49-23-41-42-22-28-2-0
0-29-15-37-5-47-21-30-6-0
0-17-3-44-32-9-40-0
Cost: 403
0-4-27-13-19-8-46-34-0
0-35-14-11-38-10-12-26-0
0-33-16-49-23-41-42-22-28-2-0
0-29-15-37-5-47-21-30-6-0
0-17-3-44-32-9-40-0
Cost: 403
0-4-27-13-19-8-46-34-0
0-35-14-11-38-10-12-26-0
0-33-16-49-23-41-42-22-28-2-0
0-29-15-37-5-47-21-30-6-0
0-17-3-44-32-9-40-0
Cost: 403
0-4-27-13-19-8-46-34-0
0-35-14-11-38-10-12-26-0
0-33-16-49-23-41-42-22-28-2-0
0-29-15-37-5-47-21-30-6-0
0-17-3-44-32-9-40-0
Cost: 403
0-4-27-13-19-8-46-34-0
0-35-14-11-38-10-12-26-0
0-33-16-49-23-41-42-22-28-2-0
0-29-15-37-5-47-21-30-6-0
0-17-3-44-32-9-40-0
Cost: 403
0-4-27-13-19-8-46-34-0
0-35-14-11-38-10-12-26-0
0-33-16-49-23-41-42-22-28-2-0
0-29-15-37-5-47-21-30-6-0
0-17-3-44-32-9-40-0
Cost: 403
0-4-27-13-19-8-46-34-0
0-35-14-11-38-10-12-26-0
0-33-16-49-23-41-42-22-28-2-0
0-29-15-37-5-47-21-30-6-0
0-17-3-44-32-9-40-0
Cost: 403
0-4-27-13-19-8-46-34-0
0-35-14-11-38-10-12-26-0
0-33-16-49-23-41-42-22-28-2-0
0-29-15-37-5-47-21-30-6-0
0-17-3-44-32-9-40-0
Cost: 403
0-4-27-13-19-8-46-34-0
0-35-14-11-38-10-12-26-0
0-33-16-49-23-41-42-22-28-2-0
0-29-15-37-5-47-21-30-6-0
0-17-3-44-32-9-40-0
Cost: 403
0-33-16-49-23-41-42-22-28-2-0
0-35-14-11-38-10-12-26-0
0-17-3-44-32-9-40-0
0-29-15-37-5-47-21-30-6-0
0-4-27-13-19-8-46-34-0
Cost: 403
0-4-27-13-19-8-46-34-0
0-35-14-11-38-10-12-26-0
0-33-16-49-23-41-42-22-28-2-0
0-29-15-37-5-47-21-30-6-0
0-17-3-44-32-9-40-0
Cost: 403
0-4-27-13-19-8-46-34-0
0-35-14-11-38-10-12-26-0
0-33-16-49-23-41-42-22-28-2-0
0-29-15-37-5-47-21-30-6-0
0-17-3-44-32-9-40-0
Cost: 403
0-4-27-13-19-8-46-34-0
0-35-14-11-38-10-12-26-0
0-33-16-49-23-41-42-22-28-2-0
0-29-15-37-5-47-21-30-6-0
0-17-3-44-32-9-40-0
Cost: 403
0-26-12-10-38-11-14-35-0
0-4-27-13-19-8-46-34-0
0-17-3-44-32-9-40-0
0-6-30-21-47-5-37-15-29-0
0-2-28-22-42-41-23-49-16-33-0
Cost: 0
Cost: 404
0-12-39-9-32-44-3-0
0-34-27-13-15-37-36-5-30-0
0-6-33-22-42-41-23-49-16-17-0
0-4-45-29-48-21-28-2-0
0-8-19-14-11-38-10-26-0
Cost: 403
0-6-30-21-47-5-37-15-29-0
0-2-28-22-42-41-23-49-16-33-0
0-34-46-8-19-13-27-4-0
0-40-9-32-44-3-17-0
0-35-14-11-38-10-12-26-0
Cost: 403
0-35-14-11-38-10-12-26-0
0-29-15-37-5-47-21-30-6-0
0-33-16-49-23-41-42-22-28-2-0
0-34-46-8-19-13-27-4-0
0-40-9-32-44-3-17-0
